38
58
24
75
77
25
136
61
18
29
10
71
135
81
45
31
131
61
78
65
22
29
81
104
30
53
113
14
40
129
35
29
42
108
11
0
65
160
31
90
35
122
57
101
22
16
81
45
20
141
60
16
10
101
110
64
100
75
50
142
38
88
120
58
27
32
69
74
30
31
120
98
18
15
55
20
37
148
58
25
83
58
52
30
31
129
16
0
94
83
12
69
29
27
37
85
30
101
41
64
